10 10 4

0 56 374 236 338 148 304 455 74 474 
233 0 341 192 232 433 203 450 160 301 
447 471 0 427 64 143 473 394 164 311 
143 383 264 0 420 389 344 155 226 443 
165 388 467 346 0 120 308 244 59 447 
397 215 106 404 368 0 76 86 138 376 
58 482 490 319 332 372 0 290 251 468 
133 113 400 75 435 287 249 0 280 114 
263 474 330 209 127 495 473 481 0 362 
499 67 206 375 282 188 120 101 226 0 

251.75 0 1
251.75 1 3
251.75 2 3
251.75 3 5
251.75 4 6
251.75 5 6
251.75 6 5
251.75 7 8
251.75 8 9
251.75 9 3

